c File: data_files/evolved_graphs/g7412.col
c
c Auto generated graph
c
p edge 100 1674
e 1 6
e 1 7
e 1 9
e 1 14
e 1 19
e 1 20
e 1 25
e 1 29
e 1 31
e 1 32
e 1 33
e 1 34
e 1 38
e 1 40
e 1 46
e 1 47
e 1 52
e 1 53
e 1 61
e 1 67
e 1 69
e 1 70
e 1 80
e 1 82
e 1 84
e 1 86
e 1 87
e 1 88
e 1 89
e 1 95
e 2 4
e 2 6
e 2 13
e 2 14
e 2 23
e 2 24
e 2 29
e 2 31
e 2 33
e 2 34
e 2 36
e 2 37
e 2 38
e 2 42
e 2 43
e 2 45
e 2 46
e 2 47
e 2 48
e 2 50
e 2 55
e 2 56
e 2 59
e 2 61
e 2 62
e 2 66
e 2 74
e 2 75
e 2 76
e 2 80
e 2 81
e 2 82
e 2 86
e 2 87
e 2 91
e 2 93
e 3 6
e 3 7
e 3 22
e 3 26
e 3 28
e 3 29
e 3 31
e 3 37
e 3 40
e 3 41
e 3 42
e 3 45
e 3 46
e 3 49
e 3 51
e 3 52
e 3 61
e 3 62
e 3 63
e 3 64
e 3 66
e 3 67
e 3 69
e 3 70
e 3 71
e 3 75
e 3 78
e 3 85
e 3 88
e 3 89
e 3 90
e 3 91
e 3 93
e 3 94
e 3 97
e 3 98
e 4 5
e 4 8
e 4 14
e 4 18
e 4 24
e 4 30
e 4 31
e 4 32
e 4 33
e 4 34
e 4 38
e 4 39
e 4 40
e 4 41
e 4 43
e 4 46
e 4 49
e 4 50
e 4 51
e 4 54
e 4 56
e 4 57
e 4 63
e 4 68
e 4 77
e 4 79
e 4 83
e 4 84
e 4 87
e 4 89
e 4 90
e 4 91
e 4 93
e 4 94
e 4 97
e 4 98
e 4 99
e 5 8
e 5 11
e 5 16
e 5 23
e 5 28
e 5 35
e 5 37
e 5 40
e 5 41
e 5 43
e 5 46
e 5 48
e 5 52
e 5 53
e 5 56
e 5 64
e 5 66
e 5 69
e 5 70
e 5 71
e 5 74
e 5 78
e 5 83
e 5 84
e 5 85
e 5 86
e 5 87
e 5 91
e 5 92
e 5 96
e 5 97
e 5 99
e 6 9
e 6 19
e 6 22
e 6 27
e 6 30
e 6 36
e 6 40
e 6 42
e 6 43
e 6 46
e 6 48
e 6 52
e 6 53
e 6 54
e 6 58
e 6 61
e 6 62
e 6 64
e 6 65
e 6 66
e 6 79
e 6 80
e 6 81
e 6 82
e 6 83
e 6 85
e 6 90
e 6 94
e 6 96
e 6 97
e 6 98
e 6 99
e 7 9
e 7 12
e 7 14
e 7 16
e 7 18
e 7 24
e 7 26
e 7 27
e 7 34
e 7 35
e 7 36
e 7 39
e 7 40
e 7 44
e 7 50
e 7 51
e 7 55
e 7 57
e 7 60
e 7 62
e 7 63
e 7 65
e 7 80
e 7 81
e 7 82
e 7 83
e 7 86
e 7 88
e 7 89
e 7 90
e 7 91
e 7 92
e 7 99
e 8 11
e 8 13
e 8 17
e 8 27
e 8 30
e 8 33
e 8 40
e 8 41
e 8 42
e 8 43
e 8 44
e 8 45
e 8 47
e 8 51
e 8 53
e 8 56
e 8 59
e 8 61
e 8 62
e 8 67
e 8 72
e 8 79
e 8 80
e 8 81
e 8 86
e 8 88
e 8 89
e 8 92
e 8 99
e 8 100
e 9 11
e 9 13
e 9 14
e 9 18
e 9 21
e 9 22
e 9 23
e 9 30
e 9 32
e 9 37
e 9 45
e 9 48
e 9 49
e 9 52
e 9 55
e 9 65
e 9 68
e 9 71
e 9 77
e 9 82
e 9 85
e 9 86
e 9 88
e 9 89
e 9 93
e 9 96
e 9 97
e 11 14
e 11 17
e 11 20
e 11 22
e 11 24
e 11 28
e 11 31
e 11 32
e 11 36
e 11 39
e 11 40
e 11 43
e 11 44
e 11 45
e 11 48
e 11 51
e 11 55
e 11 57
e 11 67
e 11 69
e 11 76
e 11 77
e 11 78
e 11 79
e 11 80
e 11 82
e 11 85
e 11 90
e 11 92
e 11 94
e 11 95
e 11 96
e 11 98
e 12 14
e 12 17
e 12 18
e 12 23
e 12 24
e 12 25
e 12 27
e 12 30
e 12 32
e 12 35
e 12 36
e 12 40
e 12 41
e 12 45
e 12 49
e 12 50
e 12 51
e 12 52
e 12 54
e 12 56
e 12 68
e 12 70
e 12 73
e 12 74
e 12 76
e 12 78
e 12 79
e 12 81
e 12 82
e 12 84
e 12 85
e 12 86
e 12 93
e 12 95
e 12 97
e 12 98
e 13 14
e 13 16
e 13 21
e 13 25
e 13 26
e 13 27
e 13 28
e 13 29
e 13 32
e 13 35
e 13 42
e 13 46
e 13 47
e 13 48
e 13 49
e 13 53
e 13 56
e 13 58
e 13 59
e 13 60
e 13 63
e 13 67
e 13 68
e 13 71
e 13 72
e 13 78
e 13 79
e 13 81
e 13 84
e 13 94
e 13 98
e 13 100
e 14 16
e 14 17
e 14 20
e 14 24
e 14 28
e 14 32
e 14 34
e 14 35
e 14 37
e 14 38
e 14 40
e 14 41
e 14 42
e 14 44
e 14 49
e 14 54
e 14 56
e 14 58
e 14 62
e 14 63
e 14 68
e 14 72
e 14 73
e 14 76
e 14 81
e 14 82
e 14 85
e 14 86
e 14 87
e 14 89
e 14 91
e 14 94
e 14 100
e 15 16
e 15 18
e 15 25
e 15 29
e 15 32
e 15 34
e 15 38
e 15 39
e 15 40
e 15 42
e 15 44
e 15 46
e 15 51
e 15 55
e 15 56
e 15 57
e 15 58
e 15 59
e 15 61
e 15 64
e 15 68
e 15 70
e 15 74
e 15 75
e 15 79
e 15 85
e 15 87
e 15 91
e 15 93
e 15 95
e 15 99
e 15 100
e 16 20
e 16 21
e 16 24
e 16 26
e 16 28
e 16 29
e 16 30
e 16 37
e 16 38
e 16 40
e 16 41
e 16 49
e 16 53
e 16 55
e 16 56
e 16 57
e 16 59
e 16 65
e 16 67
e 16 72
e 16 73
e 16 78
e 16 83
e 16 90
e 16 91
e 16 94
e 16 96
e 16 97
e 16 99
e 17 18
e 17 19
e 17 20
e 17 21
e 17 29
e 17 34
e 17 35
e 17 36
e 17 37
e 17 39
e 17 40
e 17 45
e 17 47
e 17 48
e 17 51
e 17 52
e 17 53
e 17 54
e 17 58
e 17 67
e 17 72
e 17 74
e 17 75
e 17 77
e 17 82
e 17 84
e 17 88
e 17 89
e 17 90
e 17 96
e 17 98
e 17 99
e 17 100
e 18 19
e 18 22
e 18 26
e 18 27
e 18 38
e 18 40
e 18 43
e 18 44
e 18 45
e 18 48
e 18 49
e 18 50
e 18 52
e 18 53
e 18 55
e 18 56
e 18 58
e 18 60
e 18 61
e 18 67
e 18 68
e 18 69
e 18 74
e 18 82
e 18 83
e 18 86
e 18 93
e 18 94
e 18 98
e 18 100
e 19 21
e 19 26
e 19 27
e 19 30
e 19 35
e 19 36
e 19 38
e 19 39
e 19 43
e 19 44
e 19 47
e 19 52
e 19 53
e 19 55
e 19 56
e 19 59
e 19 61
e 19 63
e 19 64
e 19 68
e 19 69
e 19 70
e 19 74
e 19 76
e 19 77
e 19 78
e 19 82
e 19 89
e 19 90
e 19 92
e 19 97
e 20 21
e 20 22
e 20 25
e 20 27
e 20 29
e 20 31
e 20 34
e 20 35
e 20 38
e 20 42
e 20 43
e 20 44
e 20 45
e 20 49
e 20 50
e 20 58
e 20 62
e 20 64
e 20 68
e 20 69
e 20 71
e 20 73
e 20 75
e 20 77
e 20 78
e 20 83
e 20 84
e 20 85
e 20 86
e 20 87
e 20 91
e 20 92
e 20 94
e 20 95
e 20 96
e 20 97
e 21 24
e 21 26
e 21 27
e 21 30
e 21 31
e 21 32
e 21 36
e 21 37
e 21 38
e 21 40
e 21 43
e 21 46
e 21 47
e 21 51
e 21 55
e 21 57
e 21 59
e 21 60
e 21 62
e 21 64
e 21 70
e 21 72
e 21 75
e 21 78
e 21 82
e 21 87
e 21 88
e 21 92
e 21 96
e 22 26
e 22 27
e 22 29
e 22 30
e 22 35
e 22 37
e 22 38
e 22 39
e 22 40
e 22 41
e 22 44
e 22 45
e 22 47
e 22 48
e 22 49
e 22 51
e 22 54
e 22 56
e 22 59
e 22 64
e 22 65
e 22 66
e 22 67
e 22 68
e 22 69
e 22 72
e 22 73
e 22 74
e 22 78
e 22 81
e 22 87
e 22 89
e 22 93
e 22 95
e 22 96
e 22 97
e 23 24
e 23 27
e 23 29
e 23 39
e 23 41
e 23 43
e 23 44
e 23 46
e 23 51
e 23 53
e 23 54
e 23 58
e 23 60
e 23 61
e 23 64
e 23 66
e 23 67
e 23 68
e 23 69
e 23 73
e 23 74
e 23 75
e 23 76
e 23 77
e 23 80
e 23 82
e 23 84
e 23 86
e 23 87
e 23 88
e 23 96
e 23 97
e 24 29
e 24 30
e 24 31
e 24 36
e 24 38
e 24 41
e 24 43
e 24 44
e 24 45
e 24 46
e 24 48
e 24 51
e 24 52
e 24 55
e 24 60
e 24 61
e 24 64
e 24 66
e 24 69
e 24 71
e 24 75
e 24 79
e 24 81
e 24 82
e 24 85
e 24 89
e 24 91
e 24 96
e 24 98
e 25 28
e 25 29
e 25 31
e 25 35
e 25 38
e 25 42
e 25 45
e 25 46
e 25 47
e 25 54
e 25 56
e 25 60
e 25 64
e 25 65
e 25 67
e 25 68
e 25 69
e 25 70
e 25 73
e 25 74
e 25 75
e 25 79
e 25 80
e 25 82
e 25 83
e 25 84
e 25 91
e 25 92
e 25 93
e 26 29
e 26 31
e 26 43
e 26 48
e 26 51
e 26 52
e 26 53
e 26 54
e 26 63
e 26 69
e 26 70
e 26 72
e 26 73
e 26 76
e 26 80
e 26 83
e 26 87
e 26 96
e 26 100
e 27 30
e 27 37
e 27 40
e 27 43
e 27 44
e 27 46
e 27 47
e 27 49
e 27 51
e 27 54
e 27 55
e 27 57
e 27 61
e 27 62
e 27 65
e 27 66
e 27 67
e 27 69
e 27 71
e 27 74
e 27 79
e 27 84
e 27 86
e 27 92
e 27 94
e 27 98
e 28 31
e 28 32
e 28 37
e 28 38
e 28 41
e 28 47
e 28 48
e 28 49
e 28 53
e 28 54
e 28 55
e 28 58
e 28 62
e 28 64
e 28 67
e 28 68
e 28 69
e 28 76
e 28 78
e 28 79
e 28 83
e 28 85
e 28 90
e 28 92
e 28 94
e 29 43
e 29 47
e 29 51
e 29 53
e 29 54
e 29 56
e 29 57
e 29 60
e 29 61
e 29 71
e 29 75
e 29 78
e 29 81
e 29 88
e 29 89
e 29 90
e 29 93
e 29 94
e 29 95
e 29 96
e 29 98
e 30 31
e 30 33
e 30 38
e 30 42
e 30 44
e 30 45
e 30 47
e 30 49
e 30 52
e 30 53
e 30 54
e 30 55
e 30 58
e 30 70
e 30 76
e 30 79
e 30 80
e 30 81
e 30 82
e 30 83
e 30 86
e 30 91
e 30 93
e 30 94
e 30 96
e 30 98
e 31 38
e 31 39
e 31 40
e 31 41
e 31 42
e 31 47
e 31 49
e 31 58
e 31 62
e 31 65
e 31 69
e 31 70
e 31 74
e 31 76
e 31 77
e 31 82
e 31 85
e 31 86
e 31 88
e 31 90
e 31 91
e 31 93
e 31 95
e 31 96
e 31 98
e 31 99
e 32 47
e 32 49
e 32 51
e 32 52
e 32 60
e 32 62
e 32 64
e 32 74
e 32 75
e 32 76
e 32 83
e 32 84
e 32 85
e 32 87
e 32 93
e 32 95
e 32 97
e 32 98
e 32 100
e 33 35
e 33 37
e 33 41
e 33 42
e 33 43
e 33 48
e 33 49
e 33 50
e 33 52
e 33 57
e 33 59
e 33 61
e 33 70
e 33 72
e 33 75
e 33 79
e 33 80
e 33 83
e 33 84
e 33 85
e 33 86
e 33 87
e 33 89
e 33 94
e 33 95
e 33 100
e 34 36
e 34 39
e 34 41
e 34 42
e 34 44
e 34 46
e 34 47
e 34 48
e 34 50
e 34 55
e 34 58
e 34 60
e 34 66
e 34 68
e 34 70
e 34 71
e 34 73
e 34 74
e 34 86
e 34 90
e 34 96
e 34 97
e 34 98
e 35 39
e 35 40
e 35 42
e 35 46
e 35 48
e 35 54
e 35 59
e 35 60
e 35 61
e 35 64
e 35 67
e 35 68
e 35 73
e 35 74
e 35 76
e 35 78
e 35 79
e 35 81
e 35 82
e 35 83
e 35 85
e 35 86
e 35 87
e 35 89
e 35 95
e 35 96
e 35 97
e 35 99
e 35 100
e 36 37
e 36 39
e 36 40
e 36 41
e 36 42
e 36 44
e 36 52
e 36 56
e 36 60
e 36 65
e 36 66
e 36 68
e 36 69
e 36 72
e 36 75
e 36 77
e 36 78
e 36 79
e 36 80
e 36 81
e 36 83
e 36 86
e 36 87
e 36 88
e 36 94
e 36 95
e 36 98
e 37 41
e 37 46
e 37 47
e 37 48
e 37 54
e 37 57
e 37 61
e 37 67
e 37 68
e 37 70
e 37 73
e 37 77
e 37 78
e 37 81
e 37 83
e 37 90
e 37 91
e 37 95
e 37 97
e 37 100
e 38 40
e 38 41
e 38 46
e 38 49
e 38 50
e 38 51
e 38 52
e 38 55
e 38 61
e 38 63
e 38 64
e 38 67
e 38 68
e 38 72
e 38 76
e 38 80
e 38 81
e 38 82
e 38 88
e 38 99
e 39 40
e 39 43
e 39 49
e 39 53
e 39 54
e 39 55
e 39 57
e 39 61
e 39 64
e 39 65
e 39 66
e 39 70
e 39 71
e 39 72
e 39 73
e 39 74
e 39 78
e 39 81
e 39 82
e 39 91
e 39 94
e 39 99
e 39 100
e 40 46
e 40 53
e 40 54
e 40 59
e 40 66
e 40 67
e 40 69
e 40 70
e 40 75
e 40 86
e 40 90
e 40 93
e 40 94
e 40 97
e 40 99
e 41 48
e 41 49
e 41 52
e 41 56
e 41 60
e 41 62
e 41 65
e 41 66
e 41 68
e 41 69
e 41 71
e 41 72
e 41 78
e 41 85
e 41 87
e 41 88
e 41 92
e 41 95
e 41 96
e 41 97
e 41 99
e 41 100
e 42 44
e 42 45
e 42 46
e 42 53
e 42 59
e 42 60
e 42 62
e 42 63
e 42 65
e 42 66
e 42 68
e 42 72
e 42 73
e 42 74
e 42 75
e 42 77
e 42 81
e 42 84
e 42 85
e 42 86
e 42 91
e 42 92
e 42 93
e 42 98
e 43 44
e 43 50
e 43 53
e 43 56
e 43 60
e 43 67
e 43 69
e 43 70
e 43 73
e 43 75
e 43 76
e 43 78
e 43 81
e 43 83
e 43 84
e 43 85
e 44 50
e 44 54
e 44 58
e 44 64
e 44 65
e 44 67
e 44 68
e 44 69
e 44 70
e 44 75
e 44 79
e 44 81
e 44 85
e 44 86
e 44 88
e 44 89
e 44 91
e 44 95
e 44 98
e 45 55
e 45 56
e 45 62
e 45 63
e 45 66
e 45 68
e 45 69
e 45 70
e 45 71
e 45 72
e 45 74
e 45 77
e 45 78
e 45 79
e 45 80
e 45 83
e 45 84
e 45 99
e 46 55
e 46 60
e 46 61
e 46 67
e 46 68
e 46 70
e 46 71
e 46 75
e 46 79
e 46 81
e 46 83
e 46 96
e 46 98
e 47 48
e 47 51
e 47 55
e 47 66
e 47 67
e 47 69
e 47 73
e 47 78
e 47 79
e 47 82
e 47 84
e 47 90
e 47 97
e 48 54
e 48 56
e 48 58
e 48 61
e 48 72
e 48 80
e 48 83
e 48 85
e 48 92
e 48 98
e 48 99
e 49 54
e 49 58
e 49 61
e 49 65
e 49 68
e 49 69
e 49 72
e 49 75
e 49 77
e 49 78
e 49 79
e 49 83
e 49 84
e 49 85
e 49 86
e 49 88
e 49 89
e 49 94
e 50 53
e 50 56
e 50 57
e 50 58
e 50 59
e 50 60
e 50 62
e 50 64
e 50 65
e 50 69
e 50 70
e 50 78
e 50 79
e 50 80
e 50 81
e 50 84
e 50 86
e 50 89
e 50 90
e 50 100
e 51 52
e 51 53
e 51 54
e 51 57
e 51 61
e 51 62
e 51 66
e 51 67
e 51 68
e 51 73
e 51 76
e 51 79
e 51 80
e 51 87
e 51 88
e 51 89
e 51 91
e 51 92
e 52 53
e 52 59
e 52 65
e 52 66
e 52 67
e 52 69
e 52 71
e 52 73
e 52 74
e 52 76
e 52 78
e 52 84
e 52 85
e 52 89
e 52 91
e 52 93
e 52 95
e 53 54
e 53 64
e 53 67
e 53 68
e 53 73
e 53 77
e 53 78
e 53 79
e 53 87
e 53 92
e 53 93
e 54 57
e 54 61
e 54 62
e 54 64
e 54 65
e 54 70
e 54 72
e 54 74
e 54 75
e 54 77
e 54 80
e 54 81
e 54 89
e 54 92
e 54 93
e 54 98
e 55 60
e 55 67
e 55 74
e 55 75
e 55 76
e 55 77
e 55 79
e 55 89
e 55 95
e 55 99
e 56 61
e 56 63
e 56 65
e 56 70
e 56 72
e 56 73
e 56 79
e 56 82
e 56 87
e 56 88
e 56 92
e 56 94
e 56 95
e 56 97
e 56 98
e 56 99
e 57 61
e 57 63
e 57 71
e 57 77
e 57 78
e 57 79
e 57 80
e 57 81
e 57 82
e 57 84
e 57 90
e 57 92
e 57 95
e 57 99
e 57 100
e 58 63
e 58 69
e 58 71
e 58 73
e 58 75
e 58 76
e 58 79
e 58 80
e 58 83
e 58 88
e 58 93
e 58 96
e 58 97
e 58 99
e 58 100
e 59 60
e 59 64
e 59 65
e 59 66
e 59 71
e 59 72
e 59 73
e 59 77
e 59 79
e 59 86
e 59 89
e 59 90
e 59 92
e 59 94
e 59 95
e 59 97
e 60 62
e 60 64
e 60 71
e 60 75
e 60 76
e 60 79
e 60 82
e 60 83
e 60 88
e 60 89
e 60 92
e 60 94
e 60 95
e 60 97
e 60 99
e 61 62
e 61 68
e 61 69
e 61 71
e 61 74
e 61 79
e 61 80
e 61 82
e 61 83
e 61 86
e 61 89
e 61 92
e 61 97
e 61 98
e 62 64
e 62 69
e 62 70
e 62 73
e 62 74
e 62 76
e 62 79
e 62 100
e 63 71
e 63 72
e 63 74
e 63 75
e 63 76
e 63 79
e 63 80
e 63 81
e 63 83
e 63 87
e 63 88
e 63 89
e 63 90
e 63 92
e 63 93
e 63 95
e 63 97
e 64 69
e 64 70
e 64 71
e 64 72
e 64 74
e 64 82
e 64 83
e 64 87
e 64 90
e 64 91
e 64 96
e 65 72
e 65 74
e 65 75
e 65 76
e 65 77
e 65 78
e 65 79
e 65 84
e 65 88
e 65 89
e 65 91
e 65 92
e 65 94
e 65 96
e 65 99
e 66 68
e 66 69
e 66 71
e 66 73
e 66 75
e 66 80
e 66 81
e 66 82
e 66 84
e 66 87
e 66 94
e 66 99
e 66 100
e 67 76
e 67 79
e 67 81
e 67 82
e 67 88
e 67 89
e 67 91
e 67 95
e 67 96
e 67 100
e 68 70
e 68 73
e 68 74
e 68 76
e 68 77
e 68 78
e 68 83
e 68 85
e 68 88
e 68 89
e 68 90
e 68 92
e 68 94
e 68 98
e 69 71
e 69 73
e 69 74
e 69 77
e 69 78
e 69 79
e 69 93
e 69 96
e 69 99
e 69 100
e 70 71
e 70 73
e 70 76
e 70 94
e 70 95
e 70 99
e 70 100
e 71 74
e 71 76
e 71 91
e 71 92
e 71 94
e 71 95
e 72 74
e 72 80
e 72 84
e 72 88
e 72 95
e 72 96
e 73 85
e 73 90
e 73 100
e 74 75
e 74 76
e 74 83
e 74 86
e 74 90
e 74 92
e 74 93
e 74 96
e 75 83
e 75 84
e 75 87
e 75 89
e 75 92
e 75 93
e 76 80
e 76 83
e 76 86
e 76 90
e 76 94
e 76 95
e 76 96
e 76 99
e 77 81
e 77 84
e 77 90
e 77 91
e 77 94
e 77 95
e 77 97
e 77 98
e 77 99
e 78 85
e 78 86
e 78 88
e 78 89
e 78 97
e 79 87
e 79 90
e 79 93
e 79 96
e 80 84
e 80 86
e 80 94
e 80 97
e 80 98
e 80 99
e 80 100
e 81 85
e 81 95
e 81 99
e 81 100
e 82 85
e 82 88
e 82 90
e 82 91
e 82 92
e 82 93
e 82 94
e 82 96
e 82 100
e 83 90
e 83 91
e 83 99
e 84 85
e 84 91
e 84 98
e 84 99
e 84 100
e 85 90
e 85 95
e 85 98
e 85 100
e 86 87
e 86 88
e 86 96
e 86 98
e 86 99
e 86 100
e 87 95
e 87 97
e 88 90
e 88 91
e 89 96
e 89 97
e 90 94
e 90 95
e 90 96
e 91 97
e 91 98
e 92 93
e 93 97
e 93 98
e 93 100
e 94 98
e 95 98
e 96 98
e 96 100
e 97 98
e 99 100
